%BLOCK LATTICE_CART
       2.199964333233611      -1.270150000000000       0.000000000000000
       0.000000000000000       2.540300000000000       0.000000000000000
       0.000000000000000       0.000000000000000      18.000000000000000
%ENDBLOCK LATTICE_CART

%BLOCK POSITIONS_FRAC
  H   0.6666666666666670   0.3333333333333330   0.4255200000000000
  H   0.3333333333333330   0.6666666666666669  -0.4255200000000000
  C   0.6666666666666670   0.3333333333333330   0.4872499999999999
  C   0.3333333333333330   0.6666666666666669  -0.4872499999999999
%ENDBLOCK POSITIONS_FRAC

%BLOCK BS_KPOINT_LIST
   0.0000000000000000   0.0000000000000000   0.0000000000000000       0.047619047619048
   0.0000000000000000   0.0333333333333333   0.0000000000000000       0.023809523809524
   0.0000000000000000   0.0666666666666667   0.0000000000000000       0.023809523809524
   0.0000000000000000   0.1000000000000000   0.0000000000000000       0.023809523809524
   0.0000000000000000   0.1333333333333333   0.0000000000000000       0.023809523809524
   0.0000000000000000   0.1666666666666667   0.0000000000000000       0.023809523809524
   0.0000000000000000   0.2000000000000000   0.0000000000000000       0.023809523809524
   0.0000000000000000   0.2333333333333333   0.0000000000000000       0.023809523809524
   0.0000000000000000   0.2666666666666667   0.0000000000000000       0.023809523809524
   0.0000000000000000   0.3000000000000000   0.0000000000000000       0.023809523809524
   0.0000000000000000   0.3333333333333333   0.0000000000000000       0.023809523809524
   0.0000000000000000   0.3666666666666666   0.0000000000000000       0.023809523809524
   0.0000000000000000   0.4000000000000000   0.0000000000000000       0.023809523809524
   0.0000000000000000   0.4333333333333334   0.0000000000000000       0.023809523809524
   0.0000000000000000   0.4666666666666667   0.0000000000000000       0.023809523809524
   0.0000000000000000   0.5000000000000000   0.0000000000000000       0.023809523809524
  -0.0370370370370370   0.5185185185185186   0.0000000000000000       0.023809523809524
  -0.0740740740740740   0.5370370370370371   0.0000000000000000       0.023809523809524
  -0.1111111111111110   0.5555555555555557   0.0000000000000000       0.023809523809524
  -0.1481481481481480   0.5740740740740742   0.0000000000000000       0.023809523809524
  -0.1851851851851850   0.5925925925925928   0.0000000000000000       0.023809523809524
  -0.2222222222222220   0.6111111111111113   0.0000000000000000       0.023809523809524
  -0.2592592592592590   0.6296296296296299   0.0000000000000000       0.023809523809524
  -0.2962962962962960   0.6481481481481484   0.0000000000000000       0.023809523809524
  -0.3333333333333330   0.6666666666666670   0.0000000000000000       0.023809523809524
  -0.3137254901960781   0.6274509803921572   0.0000000000000000       0.023809523809524
  -0.2941176470588232   0.5882352941176473   0.0000000000000000       0.023809523809524
  -0.2745098039215683   0.5490196078431375   0.0000000000000000       0.023809523809524
  -0.2549019607843135   0.5098039215686276   0.0000000000000000       0.023809523809524
  -0.2352941176470586   0.4705882352941179   0.0000000000000000       0.023809523809524
  -0.2156862745098037   0.4313725490196080   0.0000000000000000       0.023809523809524
  -0.1960784313725488   0.3921568627450982   0.0000000000000000       0.023809523809524
  -0.1764705882352939   0.3529411764705884   0.0000000000000000       0.023809523809524
  -0.1568627450980391   0.3137254901960785   0.0000000000000000       0.023809523809524
  -0.1372549019607842   0.2745098039215687   0.0000000000000000       0.023809523809524
  -0.1176470588235293   0.2352941176470589   0.0000000000000000       0.023809523809524
  -0.0980392156862744   0.1960784313725491   0.0000000000000000       0.023809523809524
  -0.0784313725490196   0.1568627450980392   0.0000000000000000       0.023809523809524
  -0.0588235294117647   0.1176470588235294   0.0000000000000000       0.023809523809524
  -0.0392156862745098   0.0784313725490196   0.0000000000000000       0.023809523809524
  -0.0196078431372549   0.0392156862745098   0.0000000000000000       0.023809523809524
%ENDBLOCK BS_KPOINT_LIST

%BLOCK KPOINTS_LIST
   0.4444444444444444   0.4444444444444444   0.0000000000000000       0.074074074074074
   0.4444444444444444   0.3333333333333334   0.0000000000000000       0.148148148148148
   0.4444444444444444   0.0000000000000000   0.0000000000000000       0.074074074074074
   0.4444444444444444  -0.1111111111111111   0.0000000000000000       0.148148148148148
   0.4444444444444444  -0.2222222222222222   0.0000000000000000       0.074074074074074
   0.3333333333333334   0.3333333333333334   0.0000000000000000       0.024691358024691
   0.3333333333333334   0.0000000000000000   0.0000000000000000       0.074074074074074
   0.3333333333333334  -0.1111111111111111   0.0000000000000000       0.148148148148148
   0.2222222222222222   0.0000000000000000   0.0000000000000000       0.074074074074074
   0.2222222222222222  -0.1111111111111111   0.0000000000000000       0.074074074074074
   0.1111111111111112   0.0000000000000000   0.0000000000000000       0.074074074074074
   0.0000000000000000   0.0000000000000000   0.0000000000000000       0.012345679012346
%ENDBLOCK KPOINTS_LIST

FIX_COM : false
%BLOCK IONIC_CONSTRAINTS
%ENDBLOCK IONIC_CONSTRAINTS

%BLOCK EXTERNAL_EFIELD
    0.0000000000     0.0000000000     0.0000000000 
%ENDBLOCK EXTERNAL_EFIELD

%BLOCK SPECIES_MASS
       H      1.0080000162
       C     12.0109996796
%ENDBLOCK SPECIES_MASS

%BLOCK SPECIES_POT
       H  H_00PBE_OP.recpot
       C  C_00PBE_OP.recpot
%ENDBLOCK SPECIES_POT

%BLOCK SPECIES_LCAO_STATES
       H         1
       C         2
%ENDBLOCK SPECIES_LCAO_STATES

